100
120
100
100
99
96
94
93
92
92
92
90
90
89
89
89
87
84
82
82
82
81
80
77
77
77
77
75
73
72
71
69
68
68
64
64
62
61
58
54
53
53
53
52
52
51
51
49
49
48
48
46
45
45
44
43
42
41
40
37
37
36
35
35
34
34
33
33
33
31
29
27
24
24
23
22
21
20
18
17
17
16
15
14
14
14
13
13
13
11
11
9
8
7
7
6
4
3
1
1
1
1
